10
0 14 4 10 20 14 3 8 5 9
14 0 7 8 7 18 2 14 10 13
4 5 0 7 16 9 2 8 5 13
11 7 9 0 2 10 19 20 8 15
18 7 17 4 0 19 4 8 20 10
1 7 17 4 19 0 8 20 10 11
4 5 10 8 16 9 0 2 8 10 15
14 3 7 8 7 18 2 0 10 13
13 7 9 6 10 15 20 0 12
12 7 8 6 16 15 2 12 0
